(declare-fun e () String)
(declare-fun c () String)
(declare-fun b () String)
(declare-fun d () String)
(declare-fun f () String)
(declare-fun a () String)
(declare-fun h () String)
(assert (= b (str.++ d "hf" f)))
(assert (= (str.++ b "d") (str.++ a "e" h)))
(assert (= (str.++ "a" e e a "b" f) (str.++ c "aa" d)))

(check-sat)
